(set-info :status unknown)
(declare-fun %Y () (_ BitVec 31))
(declare-fun %X () (_ BitVec 31))
(assert
 (let (($x7407 (and (distinct (bvudiv ((_ zero_extend 26) %X) ((_ zero_extend 26) %Y)) ((_ zero_extend 26) (bvudiv %X %Y))) true)))
 (and (and (distinct ((_ zero_extend 26) %Y) (_ bv0 57)) true) $x7407)))
(check-sat)
